WARNING: for repeatability, setting FPU to use double precision
============================[ Problem Statistics ]=============================
|                                                                             |
|  Number of variables:           100                                         |
|  Number of clauses:             449                                         |
|  Parse time:                   0.00 s                                       |
|  Simplification time:          0.00 s                                       |
|                                                                             |
============================[ Search Statistics ]==============================
| Conflicts |          ORIGINAL         |          LEARNT          | Progress |
|           |    Vars  Clauses Literals |    Limit  Clauses Lit/Cl |          |
===============================================================================
===============================================================================
restarts              : 1
conflicts             : 40             (19185 /sec)
decisions             : 64             (0.00 % random) (30695 /sec)
propagations          : 873            (418705 /sec)
conflict literals     : 275            (7.72 % deleted)
Memory used           : 13.00 MB
CPU time              : 0.002085 s

SATISFIABLE
